
Gurobi 11.0.3 (linux64) logging started Tue Apr 14 03:12:56 2026

Set parameter LogFile to value "tree/results/wine/wine_depth-2_run-2/Full MIP/LogFile_FullModel.txt"
Gurobi Optimizer version 11.0.3 build v11.0.3rc0 (linux64 - "CentOS Linux 7 (Core)")

CPU model: Intel(R) Xeon(R) Platinum 8260 CPU @ 2.40GHz, instruction set [SSE2|AVX|AVX2|AVX512]
Thread count: 96 physical cores, 192 logical processors, using up to 32 threads

Optimize a model with 3921 rows, 3337 columns and 50697 nonzeros
Model fingerprint: 0xb3a1e440
Model has 532 general constraints
Variable types: 1690 continuous, 1647 integer (1647 binary)
Coefficient statistics:
  Matrix range     [2e-03, 1e+04]
  Objective range  [8e-03, 1e+04]
  Bounds range     [6e-02, 5e+02]
  RHS range        [1e-04, 9e+02]

User MIP start produced solution with objective -599.075 (0.08s)
Loaded user MIP start with objective -599.075

Presolve added 528 rows and 1064 columns
Presolve time: 0.07s
Presolved: 4449 rows, 4401 columns, 52837 nonzeros
Presolved model has 1064 SOS constraint(s)
Variable types: 1690 continuous, 2711 integer (2711 binary)

Root relaxation: objective 1.000000e+00, 1910 iterations, 0.71 seconds (0.54 work units)

    Nodes    |    Current Node    |     Objective Bounds      |     Work
 Expl Unexpl |  Obj  Depth IntInf | Incumbent    BestBd   Gap | It/Node Time

     0     0    1.00000    0  312 -599.07519    1.00000   100%     -    2s
     0     2    1.00000    0  311 -599.07519    1.00000   100%     -    5s
    63    96    1.00000    6  366 -599.07519    1.00000   100%   271   11s
H   95   128                    -599.0676692    1.00000   100%   205   18s
H  101   128                    -599.0601504    1.00000   100%   195   18s
H  107   128                    -399.0601504    1.00000   100%   185   18s
H  109   128                       0.9323308    1.00000  7.26%   182   18s
H  111   128                       0.9398496    1.00000  6.40%   179   18s
H  159   192                       0.9473684    1.00000  5.56%   147   31s
H  167   192                       0.9774436    1.00000  2.31%   141   31s
   191   224    1.00000    8  369    0.97744    1.00000  2.31%   129   35s
   223   308    1.00000    8  365    0.97744    1.00000  2.31%   173   66s
H  284   308                       0.9849624    1.00000  1.53%   193   66s
H  307   810                       0.9924812    1.00000  0.76%   185   71s
   809  1990    1.00000   19  374    0.99248    1.00000  0.76%   165   81s
H 1014  1990                       1.0000000    1.00000  0.00%   173   81s

Explored 1989 nodes (365434 simplex iterations) in 81.23 seconds (84.14 work units)
Thread count was 32 (of 192 available processors)

Solution count 10: 1 0.992481 0.984962 ... -599.068

Optimal solution found (tolerance 1.00e-04)
Best objective 1.000000000000e+00, best bound 1.000000000000e+00, gap 0.0000%

User-callback calls 46578, time in user-callback 0.56 sec
